$molecule
0 1
O       0.00000000    0.00000000    1.00000000
$end
$rem
   JOBTYPE       freq
   METHOD        wb97xd
   UNRESTRICTED  False
   BASIS         def2-tzvp
   IQMOL_FCHK    TRUE
$end


@@@
$molecule
read
$end
$rem
   JOBTYPE       rpath
   BASIS        def2-tzvp
   METHOD        wb97xd
   RPATH_DIRECTION -1
   RPATH_MAX_CYCLES 20
   RPATH_MAX_STEPSIZE 150
   RPATH_TOL_DISPLACEMENT 5000
   RPATH_PRINT 2
   SCF_GUESS     read
$end



