%chk=check.chk
%mem=14336mb
%NProcShared=8

#P opt=(calcfc)  cbs-qb3   IOp(2/9=2000)   

spc1

0 3
O       0.00000000    0.00000000    1.00000000


