%chk=check.chk
%mem=7168mb
%NProcShared=10

#P opt=(ts, calcfc, noeigentest, maxcycles=100) guess=mix uwb97xd/def2svp   IOp(2/9=2000) scf=xqc  

TS0

0 2
C      -1.86065923    0.39058104    1.28680142
C      -0.59157177    1.12098242    1.70124321
O       0.59784148    0.54727957    1.16265001
O       0.59784148    0.82928917   -0.26722079
H      -1.81224097   -0.66249253    1.57627491
H      -2.00130885    0.45268701    0.20621886
H      -2.73358470    0.84015664    1.76857156
H      -0.42182888    1.04732461    2.77994799
H      -0.63293955    2.18182041    1.43107668
C       0.59784148   -1.47275619   -2.69824377
C       0.59784148   -1.47275619   -1.16783822
H       0.59784150   -2.49115813   -3.09666796
H      -0.28411877   -0.96355513   -3.09666846
H       1.47980357   -0.96355655   -3.09666728
H       0.59784148   -0.25067386   -0.68972920
H       1.47980174   -1.98195724   -0.76941353
H      -0.28412059   -1.98195585   -0.76941472


