%chk=check.chk
%mem=7168mb
%NProcShared=10

#P opt=(ts, calcfc, noeigentest, maxcycles=100) guess=mix uwb97xd/def2svp   IOp(2/9=2000) scf=xqc  

TS0

0 2
C       1.02877033   -0.84268016    1.27204700
C       1.03538110    0.67335635    1.40403484
O       0.57458491    1.34911133    0.23572685
O      -0.85975386    1.10854086    0.14160970
H       1.63343319   -1.15863745    0.41784739
H       0.00975097   -1.20971532    1.13720317
H       1.43907088   -1.30543748    2.17411611
H       2.05294824    1.06074627    1.51506766
H       0.44554459    1.00348341    2.26611808
C      -0.85975386   -1.19350450   -2.28941329
C      -0.85975386   -1.19350450   -0.75900774
H      -0.85975385   -2.21190644   -2.68783748
H      -1.74171412   -0.68430343   -2.68783798
H       0.02220822   -0.68430486   -2.68783680
H      -0.85975386    0.02857783   -0.28089872
H       0.02220640   -1.70270554   -0.36058305
H      -1.74171594   -1.70270415   -0.36058424


