%chk=check.chk
%mem=7168mb
%NProcShared=10

#P opt=(ts, calcfc, noeigentest, maxcycles=100) guess=mix uwb97xd/def2svp   IOp(2/9=2000) scf=xqc  

TS0

0 2
C      -0.59408644    2.42473640   -0.45516177
C      -0.89717917    1.71218783    0.85489187
O      -0.71425157    0.29926990    0.79068986
O       0.72008721    0.05869943    0.69657271
H      -1.21006069    2.02375406   -1.26441578
H       0.45779123    2.30468944   -0.72056752
H      -0.80045571    3.49488261   -0.36341004
H      -1.95440134    1.80150022    1.12349325
H      -0.29767839    2.11495891    1.67857431
C       0.72008721   -2.24334593   -1.73445028
C       0.72008721   -2.24334593   -0.20404473
H       0.72008722   -3.26174787   -2.13287447
H      -0.16187305   -1.73414486   -2.13287497
H       1.60204929   -1.73414629   -2.13287379
H       0.72008721   -1.02126360    0.27406429
H       1.60204747   -2.75254697    0.19437996
H      -0.16187487   -2.75254558    0.19437877


