%chk=check.chk
%mem=25600mb
%NProcShared=16

#P opt=(calcfc,maxcycle=100,maxstep=5,tight)  guess=mix cbs-qb3  integral=(grid=ultrafine, Acc2E=12) IOp(2/9=2000)    scf=(direct,tight)

iC3H7

0 2
C      -4.35179880    0.04736504   -0.09252185
H      -4.18627789   -0.97811756   -0.34920892
H      -3.91540944    0.67694608   -0.83957743
H      -5.40360428    0.23589654   -0.03719468
C      -3.70428605    0.34582291    1.27248736
H      -4.26857293    0.21560610    2.17222282
C      -2.24462207    0.83169562    1.34255021
H      -2.01037962    1.38603380    0.45782446
H      -2.11822911    1.45877460    2.20027788
H      -1.59107539   -0.01213467    1.41822831


