%chk=check.chk
%mem=25600mb
%NProcShared=16

#P opt=(calcfc,maxcycle=100,maxstep=5,tight)  guess=mix cbs-qb3  integral=(grid=ultrafine, Acc2E=12) IOp(2/9=2000)    scf=(direct,tight)

iC3H7

0 2
 C                 -1.36095208   -0.22907236   -0.11751121
 C                 -0.03458821    0.55190809   -0.16679039
 C                  1.27952268   -0.13534069    0.24842240
 H                 -0.02607479    1.57204139   -0.48952183
 H                 -1.31305706   -0.96478749    0.65794305
 H                 -1.52550034   -0.71225737   -1.05791331
 H                  1.44123314    0.00779989    1.29640165
 H                 -2.16586334    0.44719851    0.08167607
 H                  1.21675006   -1.18235633    0.03695646
 H                  2.09363594    0.29103035   -0.29959890

