# hf/3-21g geom=connectivity

AIBN optimized at wb97xd/6-311++g(d,p)

0 1
 N                  0.34269700    0.25667100   -0.17820800
 N                 -0.43349500   -0.65769500    0.05451200
 N                  2.41731872   -1.07916417    2.08039935
 N                 -2.36276900    2.14528400   -0.76917500
 C                  1.77007500   -0.16946300   -0.29398300
 C                 -1.85304400   -0.24783600    0.17823000
 C                  2.55942025    1.11530153   -0.58321611
 C                  2.04300531   -1.25673666   -1.33341538
 C                 -2.18430600   -0.29599800    1.67622900
 C                 -2.67994700   -1.26500000   -0.61528200
 C                  2.12217963   -0.66843078    1.04808732
 C                 -2.10138000    1.10810100   -0.34840400
 H                  3.63048242    0.90778556   -0.57310450
 H                  2.33388242    1.88038907    0.16008174
 H                  2.28038909    1.48886093   -1.57118254
 H                  1.47201860   -2.16169122   -1.12648223
 H                  3.10742908   -1.49794218   -1.32600350
 H                  1.76719380   -0.89392348   -2.32499076
 H                 -1.96753500   -1.29512700    2.05950200
 H                 -3.24222900   -0.07723500    1.83005800
 H                 -1.58698200    0.43382100    2.22524000
 H                 -2.47999300   -2.26587900   -0.22851600
 H                 -3.74377300   -1.04613800   -0.50969300
 H                 -2.42025300   -1.23476100   -1.67496400

 1 2 2.0 5 1.0
 2 6 1.0
 3 11 3.0
 4 12 3.0
 5 7 1.0 8 1.0 11 1.0
 6 9 1.0 10 1.0 12 1.0
 7 13 1.0 14 1.0 15 1.0
 8 16 1.0 17 1.0 18 1.0
 9 19 1.0 20 1.0 21 1.0
 10 22 1.0 23 1.0 24 1.0
 11
 12
 13
 14
 15
 16
 17
 18
 19
 20
 21
 22
 23
 24

