$molecule
0 3
O       0.00000000    0.00000000    1.00000000
$end
$rem
   JOBTYPE       opt
   METHOD        wb97xd
   UNRESTRICTED  True
   BASIS         def2-tzvp
   IQMOL_FCHK    TRUE
$end



