%chk=check.chk
%mem=102400MB
%nprocshared=16
#p opt=calcfc wb97xd guess=mix def2tzvp iop(2/9=2000) scf=xqc

s0_fuel

0 1
 C                 -2.50674143    0.60405643    0.38607663
 C                 -1.23928621   -0.26418384    0.27969944
 O                 -1.02961610   -0.94720231   -0.75620343
 O                 -0.30062515   -0.29424977    1.35808316
 C                  0.61468625   -1.56458337    1.38710737
 C                 -0.53081034   -2.55327047    1.67335074
 N                 -1.39662488   -2.00782652    2.72869719
 H                 -3.29723811    0.02934533    0.82164775
 H                 -2.79886182    0.92987262   -0.59035029
 H                 -2.30475883    1.45620917    1.00084386
 H                  0.87645095   -2.07398210    0.48328650
 H                  1.09098912   -1.94430209    2.26679442
 H                 -0.12263974   -3.48864894    1.99485329
 H                 -1.10465919   -2.70186083    0.78255425
 H                 -1.77809288   -1.13364113    2.42822747
 H                 -2.14045374   -2.64983124    2.91456965
 O                  2.01072094    0.06718723    1.15838316
 H                  2.69326803    0.27334251    1.80121243
 H                  0.80349983    0.54580465    1.20703049

