%chk=check.chk
%mem=15360mb
%NProcShared=16

#P  guess=read ub2plypd3/def2tzvp freq IOp(7/33=1) scf=(tight, direct) integral=(grid=ultrafine, Acc2E=12)  IOp(2/9=2000) scf=xqc  

TS0

0 2
O      -1.45119400    0.51124500    1.34433300
N      -0.46720000    1.20198100    1.31296100
N       0.62839300    0.91911300    0.75892300
H       1.31642700    1.66105000    0.86478400
O       1.68761700   -1.91651000   -1.04091700
N       0.57416200   -1.51782900   -0.42308800
H       0.67117000   -0.51596600    0.03459500
H      -0.23469700   -1.43738900   -1.05317300
H       0.29755900   -2.13186300    0.35420300


